c 75_4_checker.cnf
c
c field = 75
c formula set type = 4_checker
c
p cnf 5 24
140 
142 
144 
146 
-138 
141 
143 
145 
147 
-139 
28 
58 
88 
118 
-178 
29 
59 
89 
119 
-179 
58 
88 
118 
178 
-28 
59 
89 
119 
179 
-29 
58 
88 
118 
178 
-208 
59 
89 
119 
179 
-209 
88 
118 
178 
208 
-58 
89 
119 
179 
209 
-59 
88 
118 
178 
208 
-238 
89 
119 
179 
209 
-239 
118 
178 
208 
238 
-88 
119 
179 
209 
239 
-89 
118 
178 
208 
238 
-268 
119 
179 
209 
239 
-269 
178 
208 
238 
268 
-118 
179 
209 
239 
269 
-119 
178 
208 
238 
268 
-298 
179 
209 
239 
269 
-299 
20 
52 
84 
116 
-148 
21 
53 
85 
117 
-149 
176 
204 
232 
260 
-288 
177 
205 
233 
261 
-289 
